B=4;
D=1;
P=7;
S=7;
demands = [1 5 2 2 3 2 3 ];
capacities = [4 2 2 10 8 7 2 ];
dist_start = [2 4 5 7 4 8 6 ];
dist = [9 6 5 5 5 5 4 5 3 2 2 10 8 5 9 10 4 9 3 3 1 1 1 4 5 7 10 10 5 5 4 3 2 10 7 6 5 2 3 9 3 4 8 10 8 8 2 3 7 ];
